
Gurobi 6.0.5 (linux64) logging started Fri Oct 20 10:35:44 2017


Gurobi 6.0.5 (linux64) logging started Fri Oct 20 10:35:44 2017


Gurobi 6.0.5 (linux64) logging started Fri Oct 20 10:35:44 2017


Gurobi 6.0.5 (linux64) logging started Fri Oct 20 10:35:45 2017


Gurobi 6.0.5 (linux64) logging started Fri Oct 20 10:35:45 2017


Gurobi 6.0.5 (linux64) logging started Fri Oct 20 10:35:45 2017


Gurobi 6.0.5 (linux64) logging started Fri Oct 20 10:35:45 2017


Gurobi 6.0.5 (linux64) logging started Fri Oct 20 10:35:45 2017


Gurobi 6.0.5 (linux64) logging started Fri Oct 20 10:35:45 2017


Gurobi 6.0.5 (linux64) logging started Fri Oct 20 10:36:14 2017


Gurobi 6.0.5 (linux64) logging started Fri Oct 20 10:36:14 2017


Gurobi 6.0.5 (linux64) logging started Fri Oct 20 10:36:14 2017


Gurobi 6.0.5 (linux64) logging started Fri Oct 20 10:36:14 2017


Gurobi 6.0.5 (linux64) logging started Fri Oct 20 10:36:14 2017


Gurobi 6.0.5 (linux64) logging started Fri Oct 20 10:36:14 2017


Gurobi 6.0.5 (linux64) logging started Fri Oct 20 10:36:14 2017


Gurobi 6.0.5 (linux64) logging started Fri Oct 20 10:36:15 2017


Gurobi 6.0.5 (linux64) logging started Fri Oct 20 10:36:15 2017


Gurobi 6.0.5 (linux64) logging started Mon Oct 23 09:03:08 2017


Gurobi 6.0.5 (linux64) logging started Mon Oct 23 09:05:14 2017


Gurobi 6.0.5 (linux64) logging started Mon Oct 23 09:09:07 2017


Gurobi 6.0.5 (linux64) logging started Mon Oct 23 09:32:46 2017


Gurobi 6.0.5 (linux64) logging started Mon Oct 23 09:32:46 2017


Gurobi 6.0.5 (linux64) logging started Mon Oct 23 09:32:46 2017


Gurobi 6.0.5 (linux64) logging started Mon Oct 23 09:33:00 2017


Gurobi 6.0.5 (linux64) logging started Mon Oct 23 09:33:00 2017


Gurobi 6.0.5 (linux64) logging started Mon Oct 23 09:33:00 2017


Gurobi 7.5.1 (linux64, Python) logging started Mon Oct 23 12:17:26 2017

Academic license - for non-commercial use only
Changed value of parameter LogToConsole to 0
   Prev: 1  Min: 0  Max: 1  Default: 1

Gurobi 7.5.1 (linux64, Python) logging started Mon Oct 23 12:17:56 2017

Academic license - for non-commercial use only
Changed value of parameter LogToConsole to 0
   Prev: 1  Min: 0  Max: 1  Default: 1
